n_res = 5;
rcap = [25, 22, 20, 69, 84];
rtype = [1, 1, 1, 2, 2];
n_tasks = 16;
modes = [ {1, 2, 3}, {4, 5, 6}, {7, 8, 9}, {10, 11, 12}, {13, 14, 15}, {16, 17, 18}, {19, 20, 21}, {22, 23, 24}, {25, 26, 27}, {28, 29, 30}, {31, 32, 33}, {34, 35, 36}, {37, 38, 39}, {40, 41, 42}, {43, 44, 45}, {46, 47, 48} ];
succ = [ {7, 9, 10}, {6, 9, 12}, {4, 8, 11}, {5, 9}, {10}, {7}, {11, 13}, {12, 15}, {13, 16}, {12, 13}, {14, 15, 16}, {14, 16}, {15}, {}, {}, {} ];
n_opt = 48;
dur = [4, 5, 7, 1, 7, 9, 1, 4, 7, 3, 8, 9, 2, 3, 9, 3, 3, 9, 6, 7, 9, 4, 5, 5, 6, 7, 9, 2, 9, 10, 6, 7, 7, 6, 7, 10, 4, 5, 7, 5, 8, 10, 3, 4, 10, 5, 9, 10];
rreq = [|  9,  9,  8,  6,  3,  2,  6,  5,  5,  6,  5,  5,  5,  4,  4,  6,  6,  5,  8,  8,  7,  9,  5,  4,  4,  3,  3,  3,  3,  2,  3,  3,  1,  7,  5,  4,  9,  8,  7, 10,  9,  9,  7,  7,  6,  9,  8,  6
        | 10, 10, 10,  7,  6,  6,  4,  4,  4,  5,  4,  4,  4,  3,  3,  5,  6,  2,  4,  4,  3,  1,  1,  1,  8,  7,  5,  9,  4,  2,  9,  2,  6,  8,  6,  2,  9,  7,  4,  9,  9,  8,  2,  2,  2,  9,  7,  7
        |  7,  6,  3,  6,  6,  6,  6,  3,  3,  7,  6,  6,  2,  2,  2,  5,  4,  2,  2,  2,  1,  5,  4,  3,  6,  5,  2,  5,  3,  3,  9,  9,  9,  5,  2,  1,  9,  7,  5,  8,  5,  4,  7,  6,  3,  4,  4,  4
        |  7,  3,  1,  7,  5,  3,  7,  6,  6,  8,  8,  5, 10, 10,  9,  5,  4,  3,  9,  8,  7,  5,  4,  5,  6,  5,  3,  7,  6,  6,  5,  2,  3,  6,  4,  3,  5,  4,  2,  4,  3,  1,  5,  3,  1,  4,  4,  3
        | 10,  8,  6,  9,  7,  5,  8,  6,  4,  6,  4,  4, 10,  9,  9,  7,  7,  5,  8,  5,  4,  5,  4,  5,  7,  7,  6,  4,  3,  1,  5,  3,  1, 10,  8,  7,  9,  9,  9,  3,  2,  2,  7,  5,  2,  8,  6,  4 |];
